certificates/rado_a7_c18_N14.cnf
c Rad2 upper bound instance: x1 + 7*x2 - x3 = 18, interval [1,14]
p cnf 14 56
1 3 4 0
-1 -3 -4 0
1 4 11 0
-1 -4 -11 0
2 3 5 0
-2 -3 -5 0
2 4 12 0
-2 -4 -12 0
3 6 0
-3 -6 0
3 4 13 0
-3 -4 -13 0
3 4 7 0
-3 -4 -7 0
4 14 0
-4 -14 0
1 2 5 0
-1 -2 -5 0
3 5 8 0
-3 -5 -8 0
2 6 0
-2 -6 0
3 6 9 0
-3 -6 -9 0
2 3 7 0
-2 -3 -7 0
3 7 10 0
-3 -7 -10 0
2 4 8 0
-2 -4 -8 0
3 8 11 0
-3 -8 -11 0
2 5 9 0
-2 -5 -9 0
3 9 12 0
-3 -9 -12 0
2 6 10 0
-2 -6 -10 0
3 10 13 0
-3 -10 -13 0
2 7 11 0
-2 -7 -11 0
3 11 14 0
-3 -11 -14 0
1 12 0
-1 -12 0
2 8 12 0
-2 -8 -12 0
1 2 13 0
-1 -2 -13 0
2 9 13 0
-2 -9 -13 0
1 3 14 0
-1 -3 -14 0
2 10 14 0
-2 -10 -14 0
