certificates/rado_a7_c18_N14.drat
1 -14 0
-14 0
4 0
-1 0
12 0
3 0
-2 0
-6 0
-9 0
-13 0
-7 0
5 0
0
